
******************************************************************************
This program contains Ipopt, a library for large-scale nonlinear optimization.
 Ipopt is released as open source code under the Eclipse Public License (EPL).
         For more information visit https://github.com/coin-or/Ipopt
******************************************************************************

This is Ipopt version 3.14.19, running with linear solver MUMPS 5.8.1.

Number of nonzeros in equality constraint Jacobian...:     2204
Number of nonzeros in inequality constraint Jacobian.:        0
Number of nonzeros in Lagrangian Hessian.............:      525

Total number of variables............................:      647
                     variables with only lower bounds:        0
                variables with lower and upper bounds:      232
                     variables with only upper bounds:        0
Total number of equality constraints.................:      639
Total number of inequality constraints...............:        0
        inequality constraints with only lower bounds:        0
   inequality constraints with lower and upper bounds:        0
        inequality constraints with only upper bounds:        0

iter    objective    inf_pr   inf_du lg(mu)  ||d||  lg(rg) alpha_du alpha_pr  ls
   0  4.9463589e+00 9.90e+01 3.97e-04  -1.0 0.00e+00    -  0.00e+00 0.00e+00   0
   1  4.9481584e+00 9.83e-01 2.22e+01  -1.0 1.00e+02    -  4.13e-02 9.90e-01h  1
   2  4.9482311e+00 6.97e-04 8.08e-01  -1.0 9.89e-01    -  8.71e-01 1.00e+00h  1
   3  4.9493973e+00 1.81e-01 6.76e-02  -1.0 8.52e-01    -  9.91e-01 1.00e+00f  1
   4  4.9519009e+00 6.83e-02 2.47e-04  -1.0 3.32e-01    -  1.00e+00 1.00e+00h  1
   5  4.9469630e+00 8.01e-01 2.63e-03  -2.5 1.22e+00    -  1.00e+00 1.00e+00h  1
   6  4.9467609e+00 1.15e-01 1.84e-05  -2.5 1.32e+00    -  1.00e+00 1.00e+00h  1
   7  4.9467457e+00 1.26e-04 2.62e-08  -2.5 1.51e-01    -  1.00e+00 1.00e+00h  1
   8  4.9466993e+00 3.40e-03 2.77e-06  -3.8 1.49e-01    -  1.00e+00 1.00e+00h  1
   9  4.9464278e+00 6.56e-05 6.54e-06  -3.8 1.14e-01    -  1.00e+00 1.00e+00h  1
iter    objective    inf_pr   inf_du lg(mu)  ||d||  lg(rg) alpha_du alpha_pr  ls
  10  4.9463479e+00 1.35e-05 5.26e-04  -5.7 3.40e-02    -  9.50e-01 1.00e+00h  1
  11  4.9463231e+00 1.34e-06 4.17e-04  -5.7 1.38e-01    -  7.38e-01 1.00e+00h  1
  12  4.9463134e+00 2.01e-08 3.16e-05  -5.7 2.51e-01    -  9.05e-01 1.00e+00h  1
  13  4.9463116e+00 1.56e-09 3.18e-10  -5.7 4.42e-02    -  1.00e+00 1.00e+00h  1
  14  4.9462993e+00 3.97e-08 1.41e-05  -8.6 2.52e-01    -  7.03e-01 1.00e+00h  1
  15  4.9462973e+00 3.30e-09 8.91e-07  -8.6 4.86e-02    -  9.73e-01 9.55e-01h  1
  16  4.9462974e+00 1.27e-12 3.62e-14  -8.6 4.35e-04    -  1.00e+00 1.00e+00f  1
  17  4.9462974e+00 6.48e-14 1.63e-14  -9.0 2.95e-04    -  1.00e+00 1.00e+00h  1

Number of Iterations....: 17

                                   (scaled)                 (unscaled)
Objective...............:   4.9462973534528976e+00    4.9462973534528976e+00
Dual infeasibility......:   1.6320278461989801e-14    1.6320278461989801e-14
Constraint violation....:   6.4837024639457261e-14    6.4837024639457261e-14
Variable bound violation:   0.0000000000000000e+00    0.0000000000000000e+00
Complementarity.........:   4.1793777382760741e-09    4.1793777382760741e-09
Overall NLP error.......:   4.1793777382760741e-09    4.1793777382760741e-09


Number of objective function evaluations             = 18
Number of objective gradient evaluations             = 18
Number of equality constraint evaluations            = 18
Number of inequality constraint evaluations          = 0
Number of equality constraint Jacobian evaluations   = 18
Number of inequality constraint Jacobian evaluations = 0
Number of Lagrangian Hessian evaluations             = 17
Total seconds in IPOPT                               = 0.060

EXIT: Optimal Solution Found.
